InboundTrucks  = 20;
OutboundTrucks = 13;
ReleaseTime    = [14,1,2,18,44,2,52,20,0,3,4,15,19,10,59,12,7,6,53,3];
UnloadTime     = [10,4,8,5,11,3,10,4,11,11,5,4,3,4,7,6,2,3,7,9];
LoadTime       = [12,4,9,12,11,9,12,3,2,7,2,10,4];
TransferTime   = [| 1,0,0,1,2,0,0,0,0,0,0,0,1 | 0,0,1,0,0,0,0,0,0,0,0,1,2 | 2,2,0,0,0,0,0,0,2,0,0,2,0 | 1,1,0,0,0,0,0,1,0,0,0,0,0 | 2,1,0,0,0,0,5,0,0,0,0,3,0 | 0,0,4,0,0,3,0,2,0,0,0,0,0 | 0,1,3,0,0,0,3,0,0,5,0,3,4 | 0,0,0,0,0,2,0,1,0,0,0,0,0 | 0,0,0,1,0,0,0,0,0,0,0,3,3 | 3,0,0,2,3,0,3,0,0,0,0,0,0 | 0,2,2,0,3,0,2,0,1,0,0,0,0 | 0,0,1,5,2,0,4,2,4,2,5,0,0 | 0,0,0,4,0,0,4,0,4,0,0,1,0 | 0,5,0,5,5,0,5,0,0,0,0,0,0 | 0,0,0,4,0,5,0,2,0,0,3,0,1 | 0,0,0,0,0,0,0,0,0,0,0,0,0 | 5,0,0,0,0,0,0,0,0,0,0,0,0 | 0,0,0,3,5,0,0,0,0,0,0,0,0 | 0,0,0,1,4,0,0,0,0,2,0,5,5 | 0,1,0,3,0,0,0,0,0,5,0,0,3 |];
